nrow = 8;
ncol = 8;

start_row = 1;
start_col = 1;

delay = [ 1, 9, 3, 1, 2 ];
timelimit = 50;

terrain = [| P, P, P, R, C, F, F, F
           | P, M, M, F, M, C, M, P
           | P, M, P, F, F, P, P, P
           | P, M, P, M, M, C, M, M
           | P, M, P, M, P, F, R, R
           | P, C, P, M, P, F, F, P
           | P, P, P, M, C, F, F, P
           | P, P, P, M, P, P, P, P  |];

Jin = [| false, false, false, false, false, false, false, false
       | false, false, false, false, false, false, false, false
       | false, false, false, false, false, false, false, false
       | false, false, false, false, false, false, false, false
       | false, false, false, false, false, false, false, false
       | false, false, false, false, false, false, false, false
       | false, false, false, false, false, false, false, false
       | false, false, false, true, true, true, false, false |];

soldier = [| 0,2,3,0,0,0,4,5
           | 0,0,0,5,0,0,3,6
           | 0,5,0,0,1,0,1,2
           | 0,0,0,0,0,1,6,1
           | 0,0,5,3,0,0,2,1
           | 1,4,0,0,0,8,0,1
           | 4,2,0,0,0,2,3,3
           | 0,0,0,0,0,0,0,0 |];

maxstep = 20;